
Gurobi 10.0.1 (linux64) logging started Sun Nov 26 15:43:25 2023

Set parameter LogFile to value "ArtificialInstance/ExperimentV2/S2T5K1/AdRo/gurobi91.txt"
Gurobi Optimizer version 10.0.1 build v10.0.1rc0 (linux64)

CPU model: AMD EPYC 7H12 64-Core Processor, instruction set [SSE2|AVX|AVX2]
Thread count: 128 physical cores, 128 logical processors, using up to 32 threads

Academic license 656792 - for non-commercial use only - registered to b.___@student.vu.nl
Optimize a model with 3315 rows, 3124 columns and 12145 nonzeros
Model fingerprint: 0x14967e89
Variable types: 1 continuous, 3123 integer (3123 binary)
Coefficient statistics:
  Matrix range     [1e+00, 4e+01]
  Objective range  [1e+00, 2e+01]
  Bounds range     [1e+00, 1e+00]
  RHS range        [1e+00, 1e+00]
Presolve removed 357 rows and 333 columns
Presolve time: 0.05s
Presolved: 2958 rows, 2791 columns, 11138 nonzeros
Variable types: 1 continuous, 2790 integer (2790 binary)
Found heuristic solution: objective 192.4421181

Root relaxation: objective 4.240083e+01, 2122 iterations, 0.07 seconds (0.06 work units)

    Nodes    |    Current Node    |     Objective Bounds      |     Work
 Expl Unexpl |  Obj  Depth IntInf | Incumbent    BestBd   Gap | It/Node Time

     0     0   42.40083    0  169  192.44212   42.40083  78.0%     -    0s
H    0     0                      84.0679682   42.40083  49.6%     -    0s
H    0     0                      57.7542183   42.40083  26.6%     -    0s
H    0     0                      44.4211528   42.40083  4.55%     -    0s
     0     0   44.01178    0   98   44.42115   44.01178  0.92%     -    0s
     0     0   44.01178    0   79   44.42115   44.01178  0.92%     -    0s
*    0     0               0      44.4023158   44.40232  0.00%     -    0s

Explored 1 nodes (3719 simplex iterations) in 0.31 seconds (0.18 work units)
Thread count was 32 (of 128 available processors)

Solution count 5: 44.4023 44.4212 57.7542 ... 192.442

Optimal solution found (tolerance 1.00e-04)
Best objective 4.440231575453e+01, best bound 4.440231575453e+01, gap 0.0000%
